
Gurobi 10.0.3 (linux64, gurobi_cl) logging started Thu Nov  2 11:34:24 2023

Set parameter Username
Set parameter TimeLimit to value 3600
Set parameter LogFile to value "RCPSP_531.log"
Set parameter Threads to value 32
Academic license - for non-commercial use only - expires 2024-10-30
Using license file /home/jrivera6/gurobi-licenses/v1003/compute-0-34/gurobi.lic

Gurobi Optimizer version 10.0.3 build v10.0.3rc0 (linux64)
Copyright (c) 2023, Gurobi Optimization, LLC

Read MPS format model from file RCPSP_531.mps
Reading time = 0.02 seconds
RCPSP_531: 19624 rows, 7750 columns, 64639 nonzeros

CPU model: Intel(R) Xeon(R) Gold 6130 CPU @ 2.10GHz, instruction set [SSE2|AVX|AVX2|AVX512]
Thread count: 32 physical cores, 32 logical processors, using up to 32 threads

Optimize a model with 19624 rows, 7750 columns and 64639 nonzeros
Model fingerprint: 0x219956c3
Variable types: 62 continuous, 7688 integer (7688 binary)
Coefficient statistics:
  Matrix range     [1e+00, 3e+02]
  Objective range  [1e+00, 1e+00]
  Bounds range     [1e+00, 1e+00]
  RHS range        [1e+00, 3e+02]
Presolve removed 6471 rows and 2149 columns
Presolve time: 2.26s
Presolved: 13153 rows, 5601 columns, 45289 nonzeros
Variable types: 61 continuous, 5540 integer (5540 binary)

Root relaxation: objective 6.000000e+01, 2038 iterations, 0.07 seconds (0.03 work units)

    Nodes    |    Current Node    |     Objective Bounds      |     Work
 Expl Unexpl |  Obj  Depth IntInf | Incumbent    BestBd   Gap | It/Node Time

     0     0   60.00000    0   30          -   60.00000      -     -    2s
     0     0   60.00000    0  146          -   60.00000      -     -    5s
     0     0   60.00000    0  148          -   60.00000      -     -    5s
     0     0   60.00000    0   22          -   60.00000      -     -    7s
     0     0   60.00000    0   22          -   60.00000      -     -    7s
     0     0   60.00000    0    6          -   60.00000      -     -    8s
     0     0   60.00000    0    6          -   60.00000      -     -    8s
     0     0   60.00000    0   10          -   60.00000      -     -    9s
     0     0   60.00000    0   12          -   60.00000      -     -    9s
     0     0   60.00000    0   15          -   60.00000      -     -   10s
     0     0   60.00000    0   15          -   60.00000      -     -   11s
     0     0   60.00000    0    8          -   60.00000      -     -   12s
     0     0   60.00000    0    6          -   60.00000      -     -   12s
     0     0   60.00000    0    4          -   60.00000      -     -   13s
     0     0   60.00000    0    2          -   60.00000      -     -   14s
     0     0   60.00000    0    2          -   60.00000      -     -   14s
H    0     0                     331.0000000   60.00000  81.9%     -   14s
     0     0   60.00000    0    2  331.00000   60.00000  81.9%     -   14s
H    0     0                      64.0000000   60.00000  6.25%     -   17s
     0     0   60.00000    0   48   64.00000   60.00000  6.25%     -   26s
     0     0   60.00000    0  179   64.00000   60.00000  6.25%     -   32s
     0     0   60.00000    0  142   64.00000   60.00000  6.25%     -   35s
     0     0   60.00000    0   17   64.00000   60.00000  6.25%     -   54s
     0     0   60.00000    0   42   64.00000   60.00000  6.25%     -   57s
     0     0   60.00000    0   36   64.00000   60.00000  6.25%     -   58s
     0     0   60.00000    0   40   64.00000   60.00000  6.25%     -   58s
     0     0   60.00000    0    4   64.00000   60.00000  6.25%     -   59s
H    0     0                      63.0000000   60.00000  4.76%     -   59s
H    0     0                      62.0000000   60.00000  3.23%     -   60s
     0     0   60.00000    0    8   62.00000   60.00000  3.23%     -   60s
     0     0   60.00000    0    6   62.00000   60.00000  3.23%     -   60s
     0     0   60.00000    0    8   62.00000   60.00000  3.23%     -   60s
H    0     0                      61.0000000   60.00000  1.64%     -   60s
     0     0   60.00000    0    8   61.00000   60.00000  1.64%     -   61s
     0     0   60.00000    0   30   61.00000   60.00000  1.64%     -   62s
     0     0   60.00000    0   14   61.00000   60.00000  1.64%     -   62s
     0     0   60.00000    0    7   61.00000   60.00000  1.64%     -   69s
     0     0   60.00000    0   46   61.00000   60.00000  1.64%     -   73s
     0     0   60.00000    0   68   61.00000   60.00000  1.64%     -   74s
     0     0   60.00000    0    6   61.00000   60.00000  1.64%     -   82s
     0     0   60.00000    0    2   61.00000   60.00000  1.64%     -   88s
     0     0   60.00000    0    2   61.00000   60.00000  1.64%     -   97s
     0     0   60.00000    0   16   61.00000   60.00000  1.64%     -   98s
H    0     0                      60.0000000   60.00000  0.00%     -  100s

Cutting planes:
  Gomory: 1
  Cover: 46
  Implied bound: 6
  Clique: 41
  MIR: 31
  StrongCG: 4
  RLT: 23
  Relax-and-lift: 8

Explored 1 nodes (39996 simplex iterations) in 100.79 seconds (7.00 work units)
Thread count was 32 (of 32 available processors)

Solution count 6: 60 61 62 ... 331

Optimal solution found (tolerance 1.00e-04)
Best objective 6.000000000000e+01, best bound 6.000000000000e+01, gap 0.0000%

Wrote result file 'RCPSP_531.sol'

